226 162249
1 2 3 4 5 6 7 18 19 20 50 21 22 23 24 25 26 27 38 39 42 40 41 87 89 90 88 97 96 95 43 47 46 44 37 35 34 30 29 28 31 32 33 36 45 48 49 62 103 105 108 110 118 126 119 120 121 122 123 130 134 135 136 186 185 184 183 182 181 180 179 178 177 176 175 174 173 172 171 170 169 168 167 166 150 143 142 148 149 140 147 141 208 215 218 219 221 222 223 224 226 225 220 217 216 214 213 212 211 210 209 207 206 196 195 194 193 192 191 190 189 188 187 139 138 137 63 61 60 59 58 57 56 55 54 52 51 53 64 128 127 129 131 124 125 132 205 204 203 202 201 200 199 197 198 133 65 17 15 14 10 9 11 12 16 67 66 111 112 104 106 115 116 117 109 98 99 91 92 93 100 101 102 94 144 146 156 155 157 158 159 160 161 162 163 164 165 154 153 152 151 145 107 114 113 86 85 84 83 82 81 80 79 73 8 13 71 68 69 70 72 78 77 76 75 74 
